50

100 21 319
100 9 424
99 4 367
96 7 397
96 27 321
93 34 373
91 24 349
90 3 345
90 6 398
87 33 472
84 36 315
83 29 305
80 18 240
80 29 247
80 30 447
75 36 467
74 22 388
72 31 221
72 33 465
71 23 396
71 20 456
70 12 305
69 18 331
66 10 368
65 6 247
63 28 232
60 9 298
58 27 213
57 6 302
56 15 459
54 10 329
54 22 419
53 25 238
53 16 231
53 4 374
51 20 292
51 14 454
49 7 263
46 20 346
43 12 267
40 2 264
39 11 431
38 3 469
37 4 416
37 18 403
34 6 390
33 10 221
33 5 148
31 2 270
31 13 284
